outputs/case_136.model.txt
capital_adequacy_ratio = 100
risk_to_insured_rights = False
merger_completed = False
improvement_after_guidance = False
net_worth_ratio = 3
deadline_passed = False
capital_increase_completed = False
accelerated_loss_and_net_worth_deterioration = False
net_worth = 100
improvement_plan_approved = False
cannot_pay_debt = False
financial_improvement_plan_completed = False
cannot_fulfill_contract = False
improvement_plan_submitted = False
business_improvement_plan_completed = False
internal_handling_established = True
financial_or_business_deterioration = False
supervisory_measures_applicable = False
internal_control_and_audit_ok = True
internal_handling_ok = True
capital_level = 0
accelerated_deterioration_and_no_improvement = False
internal_control_executed = True
improvement_plan_submitted_and_approved = False
level_4_penalty_due = False
penalty = False
internal_handling_executed = True
internal_control_established = True
level_4_measures_completed = False